Problem:    pizze
Rows:       8
Columns:    8
Non-zeros:  22
Status:     OPTIMAL
Objective:  z3 = 1.35 (MAXimum)

   No.   Row name   St   Activity     Lower bound   Upper bound    Marginal
------ ------------ -- ------------- ------------- ------------- -------------
     1 PensaAiBambiniInAfrica[1]
                    NS             1             1             =           0.7 
     2 PensaAiBambiniInAfrica[2]
                    NS             1             1             =           0.2 
     3 PensaAiBambiniInAfrica[3]
                    NS             1             1             =           0.1 
     4 Defc[1]      NS             0            -0             =             1 
     5 Defc[2]      NS             0            -0             =             1 
     6 BConstraint[1]
                    NS           1.5           1.5             =           0.1 
     7 BConstraint[2]
                    B            1.5           1.5             = 
     8 z3           B           1.35                             

   No. Column name  St   Activity     Lower bound   Upper bound    Marginal
------ ------------ -- ------------- ------------- ------------- -------------
     1 x[1,1]       NL             0             0             1          -0.5 
     2 x[2,1]       B              1             0             1 
     3 x[1,2]       NU             1             0             1           0.2 
     4 x[2,2]       B              0             0             1 
     5 x[1,3]       B            0.5             0             1 
     6 x[2,3]       B            0.5             0             1 
     7 c[1]         B            0.6                             
     8 c[2]         B           0.75                             

Karush-Kuhn-Tucker optimality conditions:

KKT.PE: max.abs.err = 0.00e+00 on row 0
        max.rel.err = 0.00e+00 on row 0
        High quality

KKT.PB: max.abs.err = 0.00e+00 on row 0
        max.rel.err = 0.00e+00 on row 0
        High quality

KKT.DE: max.abs.err = 1.11e-16 on column 1
        max.rel.err = 4.27e-17 on column 1
        High quality

KKT.DB: max.abs.err = 0.00e+00 on row 0
        max.rel.err = 0.00e+00 on row 0
        High quality

End of output
